887,897
547,557
416,426
980,990
746,756
901,911
435,445
479,489
898,908
859,869
539,549
329,339
84,94
513,523
271,281
203,213
70,80
389,399
335,345
798,808
884,894
619,629
413,423
517,527
468,478
457,467
495,505
325,335
289,299
772,782
833,843
564,574
42,52
84,94
425,435
586,596
15,25
860,870
131,141
828,838
588,598
283,293
420,430
985,995
401,411
30,40
465,475
304,314
376,386
575,585

1343
8025
2027
674
3115
2665
2177
1494
959
387
